10 20
0 380 260 278 403 203 94 390 295 247
380 0 558 272 125 290 475 208 92 624
260 558 0 534 621 461 224 463 466 201
278 272 534 0 202 76 353 425 250 506
403 125 621 202 0 250 494 332 180 650
203 290 461 76 250 0 277 408 243 430
94 475 224 353 494 277 0 471 389 156
390 208 463 425 332 408 471 0 176 592
295 92 466 250 180 243 389 176 0 535
247 624 201 506 650 430 156 592 535 0
4 0 3
3 1 2
4 6 33
8 0 2
8 6 31
0 5 27
4 5 63
3 9 18
5 6 9
4 8 63
7 6 46
3 2 64
4 7 50
5 2 33
5 8 34
0 3 23
1 4 26
1 7 26
7 2 54
7 5 46
